76
0 42 66 15 2 60 8 46 4 21 
20 41 35 54 36 38 49 56 43 45 
71 68 16 48 40 26 24 62 1 51 
59 53 57 31 29 72 5 50 6 70 
23 44 69 27 37 74 65 75 63 32 
30 67 47 10 25 17 11 14 73 52 
12 55 13 39 3 19 28 61 18 7 
64 22 58 9 33 34 
